000 000 000 000 -99 -99 -99 -99 -99 -99 -99 -99 -99 000 -99 000 000 000 000 000 -99 -99 -99 000 000 -99 -99 -99 -99 -99 000
000 000 000 000 000 000 000 000 -99 -99 -99 -99 -99 -99 -99 -99 000 000 -99 000 000 -99 -99 -99 -99 -99 000 000 -99 -99 000
000 000 000 000 000 000 000 000 000 -99 -99 -99 -99 -99 -99 000 000 -99 -99 -99 000 -99 000 -99 -99 -99 000 000 000 -99 000
000 000 000 000 000 000 000 000 000 000 -99 -99 000 -99 000 000 -99 -99 -99 -99 000 -99 000 000 -99 -99 000 000 -99 -99 -99
000 000 000 000 000 000 000 000 000 000 -99 -99 000 000 -99 000 000 -99 -99 -99 000 000 000 000 000 -99 000 000 -99 -99 -99
000 000 000 000 000 000 000 000 000 000 000 -99 000 000 -99 000 000 000 -99 -99 000 000 000 000 000 -99 -99 000 -99 -99 -99
000 000 000 000 000 000 000 000 000 000 -99 -99 -99 000 000 000 000 000 -99 -99 000 000 000 000 000 000 -99 -99 -99 -99 -99
000 000 000 000 000 000 000 000 000 000 -99 -99 -99 -99 000 000 000 000 -99 -99 000 000 000 000 000 000 -99 -99 -99 000 -99
000 000 000 000 000 000 000 000 000 000 000 -99 -99 -99 -99 000 000 -99 -99 -99 000 000 000 000 000 000 000 000 -99 000 000
000 000 000 000 000 000 000 000 000 000 000 000 -99 -99 -99 -99 -99 -99 000 000 000 000 000 -99 000 000 000 000 -99 000 000
000 000 000 000 000 000 000 000 000 000 000 000 000 -99 -99 -99 -99 -99 000 000 000 000 000 000 000 000 000 000 000 000 000
000 000 000 000 000 000 000 000 -99 000 000 000 000 -99 -99 000 000 000 000 000 000 002 001 000 000 000 000 000 000 000 000
000 000 000 000 000 000 000 000 -99 000 000 000 000 -99 -99 000 000 000 000 000 -99 -99 003 000 000 000 000 000 000 000 000
000 000 000 000 000 000 000 000 000 -99 000 000 -99 -99 -99 003 001 000 000 000 -99 -99 002 000 000 000 000 000 000 000 000
000 000 000 000 000 000 000 000 -99 -99 -99 -99 -99 -99 000 000 000 000 000 000 000 000 001 000 000 000 000 000 000 000 000
000 -99 000 000 000 000 000 000 000 000 -99 -99 000 000 000 000 000 000 000 000 -99 000 000 000 000 000 000 000 000 000 000
000 -99 000 -99 000 000 000 000 000 000 -99 -99 -99 000 000 000 000 000 000 000 -99 -99 000 -99 000 000 000 000 000 000 000
000 -99 -99 -99 -99 -99 000 000 000 000 -99 -99 -99 000 000 000 000 000 -99 -99 -99 000 000 -99 000 000 -99 -99 000 000 000
000 -99 -99 -99 -99 -99 000 000 000 000 -99 -99 -99 000 000 000 000 -99 -99 -99 000 000 000 -99 000 000 -99 000 000 000 -99
000 000 -99 -99 -99 -99 -99 000 000 000 000 000 000 000 000 000 -99 -99 -99 000 000 000 000 -99 -99 -99 -99 -99 -99 000 -99
000 000 000 000 000 000 -99 000 000 000 000 000 001 000 000 000 000 -99 000 000 000 000 000 -99 -99 -99 -99 -99 -99 -99 -99
000 000 000 000 000 000 001 001 000 001 001 001 002 001 000 000 000 000 000 000 000 000 000 000 -99 -99 -99 -99 -99 -99 -99
000 007 000 000 000 000 001 003 002 004 002 004 017 003 001 000 002 000 000 000 000 000 000 000 -99 -99 -99 -99 -99 -99 -99
000 004 001 000 000 001 002 006 005 016 011 011 032 006 004 003 006 001 000 000 000 000 000 000 -99 -99 -99 -99 -99 -99 -99
000 000 000 000 000 001 001 006 010 024 021 034 028 013 010 016 013 001 000 000 000 000 000 -99 -99 -99 -99 -99 -99 -99 -99
000 000 000 000 000 001 001 010 016 021 024 034 025 021 016 026 021 001 000 000 000 000 000 -99 -99 -99 -99 -99 -99 000 000
000 000 000 000 000 001 002 010 016 016 025 026 028 022 023 010 010 001 001 000 000 000 000 -99 -99 -99 -99 -99 -99 000 000
000 000 000 000 000 000 004 012 008 011 013 021 019 018 010 002 006 008 003 000 000 000 000 -99 -99 -99 -99 -99 -99 000 000
000 000 001 000 000 000 002 002 003 003 004 004 011 011 008 001 014 030 009 000 000 000 -99 -99 -99 -99 -99 -99 -99 000 000
000 000 000 000 000 000 000 001 000 000 000 000 001 004 001 000 007 019 013 000 -99 000 -99 -99 -99 -99 -99 -99 -99 -99 -99
000 000 000 000 000 000 000 000 000 000 000 000 000 000 000 000 002 006 007 000 000 000 -99 000 000 000 -99 -99 -99 -99 -99
000 000 000 000 000 000 000 000 000 000 000 000 000 000 000 001 003 013 002 000 000 -99 000 000 000 000 -99 000 -99 -99 000
000 000 000 000 000 000 000 000 000 000 000 000 000 000 001 002 012 030 009 002 001 000 000 000 000 000 000 000 000 000 000
000 000 000 000 000 000 000 000 000 000 000 000 000 001 005 029 040 057 034 010 002 000 000 000 000 000 000 000 000 000 000
002 000 000 000 000 000 000 000 000 000 000 001 000 003 023 085 058 056 037 003 000 000 000 000 000 000 000 000 000 000 000
002 000 000 000 000 000 002 002 000 003 004 003 001 005 024 081 091 051 025 009 000 000 000 000 000 000 000 000 000 000 -99
000 000 000 000 000 001 002 003 004 011 013 006 003 010 015 037 060 030 015 007 001 000 000 000 000 000 000 001 000 000 -99
000 000 000 000 000 000 003 005 008 013 031 026 014 023 028 033 035 035 020 017 003 000 000 000 001 002 001 001 000 000 000
000 000 000 000 000 001 004 021 031 028 039 010 011 031 039 031 013 018 025 021 004 000 001 002 004 006 001 000 000 000 000
000 000 000 000 000 000 006 036 054 055 024 010 018 047 035 017 014 016 035 038 016 011 004 017 015 007 000 000 002 000 000
001 000 000 000 000 000 004 045 052 053 008 013 016 023 016 014 024 025 066 035 038 027 050 075 061 020 001 000 006 001 001
001 000 000 000 000 001 005 013 025 027 018 021 012 010 010 023 035 060 078 047 054 054 091 137 044 014 010 024 023 010 004
001 000 000 000 000 000 001 010 007 018 015 010 009 010 010 018 032 048 082 040 050 083 123 105 062 033 022 046 054 058 045
000 000 000 000 000 000 004 017 007 010 010 005 005 006 007 011 010 050 040 050 047 073 083 061 065 045 039 123 048 090 071
000 000 000 000 000 001 013 021 012 005 005 005 006 005 009 004 005 018 034 026 033 048 042 058 051 058 058 085 056 075 089
000 000 000 000 000 014 057 040 018 003 003 008 012 006 006 010 006 008 026 018 017 019 015 044 053 051 073 062 044 040 072
000 000 000 000 006 029 041 030 015 007 005 018 025 006 006 013 014 010 009 012 042 019 015 038 039 062 083 056 035 040 058
000 001 001 002 012 021 023 010 006 007 009 015 028 006 007 010 018 009 012 023 016 010 022 052 054 068 057 020 021 040 046
001 002 003 004 006 006 010 006 009 006 003 013 008 006 005 013 013 008 024 032 026 015 031 033 035 048 018 004 013 009 026
001 001 001 002 010 005 006 007 006 003 003 005 003 004 008 011 026 023 041 035 015 018 021 012 017 015 005 002 003 006 009
000 000 000 002 003 004 006 003 005 006 005 002 002 003 007 013 042 043 075 035 011 004 003 006 012 002 001 002 003 006 003
000 001 001 001 001 002 002 002 007 010 010 002 000 002 011 033 055 057 058 024 004 002 001 003 001 000 001 001 004 006 005
001 001 001 000 000 001 003 002 007 008 003 001 002 004 016 021 040 114 102 011 002 002 000 000 000 001 000 001 003 004 007
001 001 002 002 003 006 004 001 003 009 002 001 001 001 007 011 062 089 085 010 002 000 000 000 000 -99 000 000 001 001 005
001 001 004 008 004 005 006 001 005 006 003 000 000 000 001 004 047 054 058 001 001 000 000 000 -99 -99 000 001 001 001 001
